NAME : XML100_2371_01
DIMENSION : 101
NB_CLUSTERS : 20
CLUSTERING_ALG : DBSCAN
CLUSTERING_PARAMS : eps(67), minSamples(3)
CLUSTERS
1 0
2 1 3 34 39 42 59 79 88
3 2 38 46 52 57 61 63 70 91 97
4 6 8 10 12 21 24 33 35 37 47 49 71 90
5 11 25 26 29 31 32 36 75 76 93
6 13 23 30 41 45 56 66 72
7 14 15 62
8 27 68 94
9 22 28 44 50 54 73 95 98
10 64 81 86 89
11 5 55 67 77 80 82 92 99
12 9 60 69 84 96
13 58 85
14 19 20 100
15 7 40 78
16 18 43 74
17 16 17
18 51 53
19 48 87
20 4 65 83
EOF